--Link1--
%chk=molecule
#HF/6-31G* SCF=tight Test Pop=MK iop(6/33=2) NoSymm iop(6/42=6) opt

remark line goes here

0   1
    C   -2.2590000000        2.1090000000        0.0000000000     
    H   -1.9020000000        2.6140000000        0.8740000000     
    H   -1.9020000000        2.6140000000       -0.8740000000     
    C   -3.7990000000        2.1090000000        0.0000000000     
    H   -4.1560000000        1.6030000000        0.8730000000     
    H   -4.1560000000        3.1180000000        0.0020000000     
    H   -4.1560000000        1.6070000000       -0.8750000000     
    C   -1.7460000000        0.6570000000        0.0000000000     
    C   -0.2060000000        0.6570000000       -0.0010000000     
    H    0.1510000000       -0.3520000000       -0.0000000000     
    H    0.1510000000        1.1610000000       -0.8740000000     
    H    0.1510000000        1.1620000000        0.8730000000     
    C   -2.2600000000       -0.0690000000       -1.2570000000     
    H   -3.2710000000       -0.3820000000       -1.1000000000     
    H   -2.2180000000        0.5960000000       -2.0950000000     
    H   -1.6470000000       -0.9250000000       -1.4500000000     
    C   -2.2590000000       -0.0690000000        1.2580000000     
    O   -1.6350000000       -1.0620000000        1.7140000000     
    O   -3.4470000000        0.3880000000        1.9090000000     
    C   -3.6670000000       -0.3810000000        3.0950000000     
    H   -3.8000000000       -1.4100000000        2.8330000000     
    H   -2.8220000000       -0.2840000000        3.7440000000     
    C   -4.9280000000        0.1340000000        3.8130000000     
    H   -4.7940000000        1.1620000000        4.0780000000     
    H   -5.7730000000        0.0400000000        3.1630000000     
    N   -5.1680000000       -0.6970000000        5.0870000000     
    C   -4.0090000000       -0.5680000000        5.9820000000     
    H   -4.3170000000       -0.7380000000        6.9920000000     
    H   -3.2650000000       -1.2880000000        5.7100000000     
    H   -3.6000000000        0.4170000000        5.8950000000     
    C   -5.3510000000       -2.1100000000        4.7240000000     
    H   -5.8820000000       -2.6130000000        5.5050000000     
    H   -5.9090000000       -2.1750000000        3.8140000000     
    H   -4.3940000000       -2.5700000000        4.5890000000     
    C   -6.3730000000       -0.2080000000        5.7730000000     
    H   -6.2390000000        0.8200000000        6.0390000000     
    H   -7.2160000000       -0.3000000000        5.1210000000     
    C   -6.6140000000       -1.0400000000        7.0450000000     
    H   -6.6470000000       -0.3910000000        7.8950000000     
    H   -5.8180000000       -1.7450000000        7.1660000000     
    C   -7.9520000000       -1.7930000000        6.9210000000     
    O   -8.6530000000       -2.0100000000        7.9430000000     
    O   -8.3980000000       -2.2450000000        5.6400000000     


