--Link1--
%chk=molecule
#HF/6-31G* SCF=tight Test Pop=MK iop(6/33=2) NoSymm iop(6/42=6) opt

remark line goes here

0   1
    C   -3.8718819000        1.0090702800        0.0000000000     
    H   -3.5152274800        0.0002602800        0.0000000000     
    H   -3.5152090600        1.5134684700       -0.8736515000     
    H   -4.9418819000        1.0090834600        0.0000000000     
    O   -3.3952069900        1.6831725300        1.1675903300     
    C   -3.8715161300        3.0315156700        1.1682113700     
    H   -4.9415145800        3.0318004300        1.1664100600     
    H   -3.5132456800        3.5367453500        0.2956947500     
    C   -3.3601080200        3.7560140800        2.4272442500     
    H   -2.2901097000        3.7556356400        2.4290984800     
    H   -3.7184658800        3.2508464900        3.2997609300     
    O   -3.8363002000        5.1043985600        2.4277939900     
    C   -3.3615384800        5.7778244000        3.5965535700     
    H   -2.2915399600        5.7777637300        3.5983327200     
    H   -3.7196854400        5.2729513500        4.4693272800     
    C   -3.8747908900        7.2297789300        3.5965149900     
    H   -3.5162840600        7.7347635700        2.7239536000     
    H   -4.9447886900        7.2299378500        3.5943519600     
    O   -3.4003865600        7.9029674900        4.7655563500     
    H   -3.7199356800        8.8082233700        4.7659307100     


