--Link1--
%chk=molecule
#HF/6-31G* SCF=tight Test Pop=MK iop(6/33=2) NoSymm iop(6/42=6) opt

remark line goes here

0   1
    C   -0.4740000000        0.3300000000        0.0190000000     
    H   -0.0920000000        0.8030000000        0.8990000000     
    H   -0.1070000000        0.8390000000       -0.8480000000     
    C   -2.0130000000        0.3840000000        0.0330000000     
    H   -2.3330000000        1.4050000000        0.0570000000     
    H   -2.3950000000       -0.0890000000       -0.8470000000     
    H   -2.3800000000       -0.1250000000        0.9000000000     
    C   -0.0130000000       -1.1390000000       -0.0160000000     
    C    1.5260000000       -1.1940000000       -0.0300000000     
    H    1.9080000000       -0.7210000000        0.8500000000     
    H    1.8470000000       -2.2140000000       -0.0540000000     
    H    1.8930000000       -0.6850000000       -0.8970000000     
    C   -0.5630000000       -1.8200000000       -1.2830000000     
    H   -1.6320000000       -1.7820000000       -1.2730000000     
    H   -0.1960000000       -1.3110000000       -2.1490000000     
    H   -0.2420000000       -2.8410000000       -1.3060000000     
    C   -0.5410000000       -1.8720000000        1.2320000000     
    O    0.1100000000       -2.8320000000        1.7200000000     
    O   -1.7710000000       -1.4620000000        1.8350000000     
    C   -1.7260000000       -1.7310000000        3.2380000000     
    H   -1.5840000000       -2.7790000000        3.3970000000     
    H   -0.9150000000       -1.1900000000        3.6790000000     
    C   -3.0510000000       -1.2890000000        3.8880000000     
    H   -3.1940000000       -0.2410000000        3.7300000000     
    H   -3.8620000000       -1.8300000000        3.4470000000     
    O   -3.0070000000       -1.5580000000        5.2920000000     
    C   -4.2370000000       -1.1480000000        5.8950000000     
    H   -4.3790000000       -0.0990000000        5.7370000000     
    H   -5.0480000000       -1.6890000000        5.4540000000     
    C   -4.1890000000       -1.4370000000        7.4070000000     
    H   -4.0440000000       -2.4860000000        7.5650000000     
    H   -3.3790000000       -0.8950000000        7.8480000000     
    O   -5.4200000000       -1.0300000000        8.0090000000     
    C   -5.3910000000       -1.3330000000        9.4060000000     
    H   -6.3090000000       -1.0190000000        9.8580000000     
    H   -5.2700000000       -2.3880000000        9.5400000000     
    H   -4.5730000000       -0.8190000000        9.8660000000     


