--Link1--
%chk=molecule
#HF/6-31G* SCF=tight Test Pop=MK iop(6/33=2) NoSymm iop(6/42=6) opt

remark line goes here

0   1
    O  -10.4580000000       -0.0270000000       -0.2810000000     
    H  -11.2130000000        0.2880000000        0.2340000000     
    C   -9.2590000000        0.5020000000        0.0110000000     
    O   -9.1610000000        1.3330000000        0.8830000000     
    C   -8.0350000000        0.0610000000       -0.7500000000     
    C   -8.1690000000        0.4770000000       -2.2160000000     
    O   -6.8570000000        0.6840000000       -0.1750000000     
    C   -5.7030000000        0.0020000000       -0.2620000000     
    O   -5.6800000000       -1.0790000000       -0.8000000000     
    C   -4.4380000000        0.5860000000        0.3130000000     
    O   -3.3370000000       -0.3350000000        0.0940000000     
    C   -2.1310000000        0.0380000000        0.5490000000     
    O   -2.0000000000        1.0990000000        1.1120000000     
    C   -0.9410000000       -0.8670000000        0.3590000000     
    O    0.2380000000       -0.2440000000        0.9340000000     
    C    1.4190000000       -0.5350000000        0.3670000000     
    O    1.4660000000       -1.2860000000       -0.5780000000     
    C    2.6860000000        0.0740000000        0.9100000000     
    O    3.8200000000       -0.3930000000        0.1330000000     
    C    5.0320000000        0.0600000000        0.4890000000     
    O    5.1420000000        0.8210000000        1.4210000000     
    C    6.2550000000       -0.3820000000       -0.2710000000     
    O    7.4340000000        0.2410000000        0.3040000000     
    C    8.4590000000        0.4880000000       -0.5270000000     
    O    8.3750000000        0.1920000000       -1.6950000000     
    C    9.7160000000        1.1320000000       -0.0010000000     
    O   10.6530000000        1.2890000000       -1.0690000000     
    H   11.4880000000        1.6990000000       -0.8020000000     
    C    6.3890000000       -1.9040000000       -0.1840000000     
    C   -1.2010000000       -2.2050000000        1.0540000000     
    H   -7.9400000000       -1.0230000000       -0.6880000000     
    H   -7.2840000000        0.1580000000       -2.7670000000     
    H   -9.0530000000        0.0100000000       -2.6480000000     
    H   -8.2640000000        1.5610000000       -2.2790000000     
    H   -4.2210000000        1.5350000000       -0.1770000000     
    H   -4.5670000000        0.7510000000        1.3830000000     
    H   -0.7800000000       -1.0360000000       -0.7060000000     
    H    2.6230000000        1.1600000000        0.8450000000     
    H    2.8130000000       -0.2210000000        1.9520000000     
    H    6.1600000000       -0.0850000000       -1.3160000000     
    H    9.4750000000        2.1100000000        0.4170000000     
    H   10.1510000000        0.5020000000        0.7740000000     
    H    7.2740000000       -2.2230000000       -0.7340000000     
    H    6.4840000000       -2.2000000000        0.8610000000     
    H    5.5040000000       -2.3710000000       -0.6160000000     
    H   -2.0860000000       -2.6730000000        0.6220000000     
    H   -0.3400000000       -2.8590000000        0.9160000000     
    H   -1.3620000000       -2.0360000000        2.1190000000     


